pure_adt/tip2015_weird_nat_add3acc_rot.smt2
(set-logic HORN)
(declare-datatypes ((Nat_338 0)) (((zero_72 ) (succ_70 (p_193 Nat_338)))))
(declare-fun diseqNat_338 (Nat_338 Nat_338) Bool)
(declare-fun p_194 (Nat_338 Nat_338) Bool)
(declare-fun iszero_70 (Nat_338) Bool)
(declare-fun issucc_70 (Nat_338) Bool)
(assert (forall ((x_28604 Nat_338))
	(p_194 x_28604 (succ_70 x_28604))))
(assert (iszero_70 zero_72))
(assert (forall ((x_28606 Nat_338))
	(issucc_70 (succ_70 x_28606))))
(assert (forall ((x_28607 Nat_338))
	(diseqNat_338 zero_72 (succ_70 x_28607))))
(assert (forall ((x_28608 Nat_338))
	(diseqNat_338 (succ_70 x_28608) zero_72)))
(assert (forall ((x_28609 Nat_338) (x_28610 Nat_338))
	(=> (diseqNat_338 x_28609 x_28610)
	    (diseqNat_338 (succ_70 x_28609) (succ_70 x_28610)))))
(declare-fun addacc_9 (Nat_338 Nat_338 Nat_338 Nat_338) Bool)
(assert (forall ((x_28595 Nat_338) (x_28592 Nat_338) (y_1196 Nat_338) (z_1129 Nat_338))
	(=> (addacc_9 x_28595 x_28592 (succ_70 y_1196) z_1129)
	    (addacc_9 x_28595 (succ_70 x_28592) y_1196 z_1129))))
(assert (forall ((x_28597 Nat_338) (x_28593 Nat_338) (z_1129 Nat_338))
	(=> (addacc_9 x_28597 zero_72 x_28593 (succ_70 z_1129))
	    (addacc_9 x_28597 zero_72 (succ_70 x_28593) z_1129))))
(assert (forall ((x_28599 Nat_338))
	(addacc_9 x_28599 zero_72 zero_72 x_28599)))
(assert (forall ((x_28600 Nat_338) (x_28601 Nat_338) (x_28594 Nat_338) (y_1197 Nat_338) (z_1130 Nat_338))
	(=>	(and true
			(diseqNat_338 x_28600 x_28601)
			(addacc_9 x_28600 x_28594 y_1197 z_1130)
			(addacc_9 x_28601 y_1197 x_28594 z_1130))
		false)))
(check-sat)
